NAME : rnd42_20.tsp
TYPE : TSP
DIMENSION : 20
EDGE_WEIGHT_TYPE : EUC_2D
NODE_COORD_SECTION
1 694 222
2 15 347
3 969 467
4 623 803
5 133 107
6 625 151
7 54 683
8 185 500
9 420 818
10 765 758
11 641 418
12 95 157
13 685 435
14 747 62
15 753 432
16 602 471
17 586 524
18 10 247
19 95 932
20 952 692
